c clasp version 2.1.1
c Reading from p45.cnf
c Solving...
s SATISFIABLE

c Models        : 1+    
c Time          : 1.639s (Solving: 0.18s 1st Model: 0.17s Unsat: 0.00s)
c CPU Time      : 1.630s
c Choices       : 6244
c Conflicts     : 265
c Restarts      : 1      (Average: 265.00 Last: 69)

c Variables     : 229693 (Eliminated: 71690 Frozen:    0)
c Constraints   : 266444 (Binary: 64.4% Ternary: 34.4% Other:  1.2%)
c Lemmas        : 265    (Binary:  1.9% Ternary:  2.3% Other: 95.8%)
c   Conflict    : 265    (Average Length: 85.0) 
c   Loop        : 0      (Average Length: 0.0) 
c   Other       : 0      (Average Length: 0.0)
c   Deleted     : 0     
